p cnf 1428 2199
-15 46 -53 101 0
-53 77 -101 102 0
77 -81 89 -102 0
30 35 -50 103 0
-50 -76 -103 104 0
-76 87 89 -104 0
15 -50 -79 105 0
15 -50 -79 -105 0
4 60 88 106 0
4 60 88 -106 0
-27 -37 -60 107 0
-60 67 -73 -107 0
-3 9 61 -65 0
12 26 27 108 0
27 -62 -108 109 0
-62 93 96 -109 0
-2 -6 34 110 0
34 35 -110 111 0
35 -42 -111 112 0
-42 -47 -53 -112 0
8 -21 28 113 0
28 -29 -113 114 0
-29 -66 -114 115 0
-66 75 -78 -115 0
-11 -43 -49 116 0
-49 -62 -116 117 0
-62 89 91 -117 0
28 35 -36 118 0
-36 74 -118 119 0
74 -84 100 -119 0
-17 22 -29 120 0
-29 -44 -120 121 0
-44 -48 -121 122 0
-48 -53 -83 -122 0
20 -46 -60 123 0
-60 -64 -123 124 0
-64 -68 -124 125 0
-68 78 -97 -125 0
31 38 -49 126 0
-49 -78 80 -126 0
8 -21 -48 127 0
-48 -51 64 -127 0
-13 60 -65 128 0
-65 72 73 -128 0
17 -27 47 129 0
47 49 -129 130 0
49 62 -130 131 0
62 63 -131 132 0
63 79 -132 133 0
79 83 -89 -133 0
42 55 58 134 0
58 60 -134 135 0
60 -74 -91 -135 0
-31 -54 -60 136 0
-31 -54 -60 -136 0
43 44 -50 137 0
-50 71 -90 -137 0
2 40 66 138 0
66 -79 -138 139 0
-79 -89 -100 -139 0
2 -23 31 140 0
31 53 59 -140 0
-14 27 -68 -75 0
59 -72 -95 141 0
59 -72 -95 -141 0
-21 -33 57 142 0
57 58 -69 -142 0
31 -36 43 143 0
43 70 -143 144 0
70 -71 -144 145 0
-71 -82 -145 146 0
-82 -97 -100 -146 0
-8 11 -20 147 0
-20 -23 -147 148 0
-23 -59 -148 149 0
-59 -64 -149 150 0
-64 70 -150 151 0
70 71 99 -151 0
2 -17 21 79 0
-68 73 152 153 0
-68 73 152 -153 0
-68 73 -152 153 0
-68 73 -152 -153 0
2 55 -77 154 0
-77 86 -154 155 0
86 -87 -90 -155 0
-17 -92 156 157 0
-17 -92 156 -157 0
-17 -92 -156 157 0
-17 -92 -156 -157 0
1 25 -26 158 0
-26 43 -158 159 0
43 44 -159 160 0
44 55 -160 161 0
55 63 -161 162 0
63 -71 -78 -162 0
-39 43 -51 163 0
-51 54 -163 164 0
54 -55 89 -164 0
-12 -55 71 165 0
71 89 -95 -165 0
74 -96 -100 166 0
74 -96 -100 -166 0
36 -49 66 90 0
1 -32 -41 73 0
-45 -47 53 167 0
-45 -47 53 -167 0
9 10 -19 168 0
-19 -42 -168 169 0
-42 -48 83 -169 0
3 20 30 170 0
30 31 -170 171 0
31 -34 -171 172 0
-34 -44 -172 173 0
-44 59 -70 -173 0
-12 15 -21 174 0
-21 24 79 -174 0
-17 33 73 175 0
-17 33 73 -175 0
23 -30 39 176 0
39 -46 -176 177 0
-46 70 79 -177 0
-3 -25 28 178 0
28 34 -178 179 0
34 -41 -179 180 0
-41 -44 -180 181 0
-44 65 -181 182 0
65 -73 -90 -182 0
5 -10 -26 183 0
-26 29 -183 184 0
29 -32 -184 185 0
-32 -62 99 -185 0
-7 18 -19 186 0
-19 -37 -186 187 0
-37 -77 -187 188 0
-77 80 -92 -188 0
25 64 76 -98 0
29 56 -84 86 0
-19 74 189 190 0
-19 74 189 -190 0
-19 74 -189 190 0
-19 74 -189 -190 0
-12 27 -64 -93 0
-2 -11 31 191 0
31 -45 -191 192 0
-45 -57 -192 193 0
-57 86 -92 -193 0
-25 -39 45 194 0
45 52 -194 195 0
52 79 -83 -195 0
11 -79 87 196 0
11 -79 87 -196 0
-73 86 197 198 0
-73 86 197 -198 0
-73 86 -197 198 0
-73 86 -197 -198 0
-24 40 55 199 0
55 -61 -199 200 0
-61 -71 78 -200 0
3 -4 -26 201 0
-26 50 -201 202 0
50 86 96 -202 0
-16 -27 -32 203 0
-16 -27 -32 -203 0
-10 -65 204 205 0
-10 -65 204 -205 0
-10 -65 -204 205 0
-10 -65 -204 -205 0
6 -19 -34 206 0
6 -19 -34 -206 0
-8 11 -21 207 0
-21 36 54 -207 0
-18 -30 -36 208 0
-36 59 -208 209 0
59 64 -209 210 0
64 80 -210 211 0
80 82 -90 -211 0
21 61 66 81 0
13 -15 -35 212 0
13 -15 -35 -212 0
21 -22 34 213 0
34 79 -99 -213 0
3 5 -27 214 0
-27 30 -214 215 0
30 32 -53 -215 0
10 -15 43 216 0
43 54 -216 217 0
54 -56 -217 218 0
-56 -60 87 -218 0
-27 31 -48 61 0
5 -15 -53 -88 0
-4 -13 19 219 0
19 -73 -85 -219 0
13 15 68 220 0
13 15 68 -220 0
23 36 -56 221 0
-56 -65 -221 222 0
-65 -72 -222 223 0
-72 76 -89 -223 0
-27 -38 -55 224 0
-55 58 -73 -224 0
-16 -48 -98 225 0
-16 -48 -98 -225 0
7 -49 69 226 0
69 -74 77 -226 0
-13 31 -41 227 0
-41 45 -227 228 0
45 48 -228 229 0
48 -50 -229 230 0
-50 -59 -230 231 0
-59 -85 -96 -231 0
34 39 46 232 0
46 -95 100 -232 0
40 78 233 234 0
40 78 233 -234 0
40 78 -233 234 0
40 78 -233 -234 0
-6 -43 53 235 0
53 71 -235 236 0
71 78 79 -236 0
22 30 33 237 0
33 40 -237 238 0
40 -73 -238 239 0
-73 76 -89 -239 0
4 -10 -27 240 0
-27 -29 -68 -240 0
13 -30 -35 241 0
-35 38 -241 242 0
38 52 -242 243 0
52 -63 85 -243 0
-3 21 24 244 0
24 30 -46 -244 0
-8 -37 -63 78 0
28 -30 63 74 0
16 37 38 245 0
38 79 -93 -245 0
18 33 45 246 0
45 67 76 -246 0
32 -35 77 247 0
32 -35 77 -247 0
-17 -61 -65 248 0
-17 -61 -65 -248 0
-12 69 100 249 0
-12 69 100 -249 0
4 -8 -11 250 0
-11 15 -250 251 0
15 -51 -251 252 0
-51 73 -252 253 0
73 -96 -100 -253 0
14 38 41 254 0
41 44 -254 255 0
44 -47 -255 256 0
-47 -91 -256 257 0
-91 93 -94 -257 0
53 -64 -75 258 0
53 -64 -75 -258 0
-2 4 8 259 0
8 54 -259 260 0
54 72 -77 -260 0
9 13 25 261 0
25 -42 -261 262 0
-42 -81 -262 263 0
-81 86 90 -263 0
-26 -45 62 -87 0
-6 55 65 -74 0
51 55 -58 264 0
51 55 -58 -264 0
-6 -22 90 265 0
-6 -22 90 -265 0
-2 55 -70 266 0
-70 81 -266 267 0
81 87 -267 268 0
87 90 92 -268 0
-29 -34 -41 269 0
-41 -60 -269 270 0
-60 -84 -89 -270 0
-4 66 71 271 0
71 -74 -87 -271 0
55 -57 -60 -81 0
12 36 -46 93 0
-2 40 48 272 0
-2 40 48 -272 0
86 87 273 274 0
86 87 273 -274 0
86 87 -273 274 0
86 87 -273 -274 0
54 -63 84 100 0
45 -57 61 275 0
61 63 -275 276 0
63 -66 74 -276 0
-20 55 61 -98 0
22 -46 277 278 0
22 -46 277 -278 0
22 -46 -277 278 0
22 -46 -277 -278 0
-24 -34 45 279 0
45 46 -279 280 0
46 -87 -280 281 0
-87 -91 -95 -281 0
5 10 -15 282 0
-15 25 -282 283 0
25 -46 59 -283 0
42 76 -81 -98 0
15 62 -64 284 0
-64 -69 -284 285 0
-69 73 -285 286 0
73 79 -286 287 0
79 90 99 -287 0
16 33 -51 288 0
-51 -64 -288 289 0
-64 68 -289 290 0
68 80 -290 291 0
80 -83 -291 292 0
-83 89 -95 -292 0
-1 -21 -24 -40 0
-18 -27 -47 293 0
-18 -27 -47 -293 0
6 17 -18 294 0
-18 -28 -294 295 0
-28 -31 -295 296 0
-31 34 -296 297 0
34 -42 -297 298 0
-42 -44 -88 -298 0
-1 16 38 299 0
38 -61 -65 -299 0
-9 -17 -22 300 0
-22 -54 67 -300 0
-45 -47 71 99 0
4 -56 -59 301 0
-59 -84 97 -301 0
1 60 -100 302 0
1 60 -100 -302 0
-8 -48 73 96 0
20 54 -68 303 0
-68 -83 88 -303 0
1 -13 -43 304 0
-43 -55 72 -304 0
2 34 72 305 0
72 -78 100 -305 0
6 9 10 306 0
10 -42 -306 307 0
-42 44 -307 308 0
44 -64 -308 309 0
-64 68 -309 310 0
68 -83 -310 311 0
-83 97 100 -311 0
-66 86 312 313 0
-66 86 312 -313 0
-66 86 -312 313 0
-66 86 -312 -313 0
-40 60 -74 96 0
2 -51 83 94 0
15 -67 -99 314 0
15 -67 -99 -314 0
30 -39 42 315 0
42 62 63 -315 0
-36 72 91 316 0
91 93 95 -316 0
89 94 317 318 0
89 94 317 -318 0
89 94 -317 318 0
89 94 -317 -318 0
18 -27 -39 319 0
-39 -67 -319 320 0
-67 -80 -90 -320 0
50 61 321 322 0
50 61 321 -322 0
50 61 -321 322 0
50 61 -321 -322 0
9 19 -49 323 0
-49 55 -91 -323 0
45 64 65 -100 0
-21 -41 52 324 0
52 -57 -324 325 0
-57 -76 -325 326 0
-76 78 -326 327 0
78 83 -89 -327 0
23 86 -88 328 0
23 86 -88 -328 0
-15 -25 68 329 0
68 70 -329 330 0
70 -85 87 -330 0
-11 -26 -93 331 0
-11 -26 -93 -331 0
5 44 -88 332 0
5 44 -88 -332 0
-70 -83 333 334 0
-70 -83 333 -334 0
-70 -83 -333 334 0
-70 -83 -333 -334 0
-2 -4 -27 335 0
-27 29 -30 -335 0
8 46 -47 336 0
-47 -61 71 -336 0
20 47 56 337 0
56 -68 -72 -337 0
41 -44 -89 338 0
41 -44 -89 -338 0
31 42 53 339 0
53 56 85 -339 0
10 -24 28 340 0
28 -39 -44 -340 0
-9 -26 -31 341 0
-9 -26 -31 -341 0
49 50 -66 342 0
-66 70 -342 343 0
70 72 -343 344 0
72 93 -100 -344 0
-11 -14 41 345 0
41 78 93 -345 0
-13 -22 -59 346 0
-59 -84 -346 347 0
-84 95 96 -347 0
6 -7 73 348 0
73 76 98 -348 0
1 -3 5 349 0
5 6 -349 350 0
6 -8 -350 351 0
-8 -13 -351 352 0
-13 73 -94 -352 0
59 -65 -77 353 0
-77 -98 100 -353 0
-51 72 -93 354 0
-51 72 -93 -354 0
-2 -11 23 355 0
23 34 -52 -355 0
-36 44 45 356 0
45 64 79 -356 0
-15 50 -86 357 0
-15 50 -86 -357 0
-29 34 51 358 0
51 -79 97 -358 0
-7 35 72 89 0
-26 32 54 359 0
54 68 -359 360 0
68 -83 -99 -360 0
83 -87 361 362 0
83 -87 361 -362 0
83 -87 -361 362 0
83 -87 -361 -362 0
9 -48 -55 363 0
9 -48 -55 -363 0
-21 -26 73 364 0
73 87 -98 -364 0
-4 -7 17 365 0
17 43 75 -365 0
56 63 72 366 0
72 74 -366 367 0
74 79 90 -367 0
-10 -19 30 368 0
30 31 -368 369 0
31 38 -369 370 0
38 -48 -370 371 0
-48 -75 -371 372 0
-75 83 92 -372 0
-2 21 -26 373 0
-26 37 -373 374 0
37 -54 -374 375 0
-54 59 -79 -375 0
37 41 -70 376 0
37 41 -70 -376 0
-10 -23 42 377 0
42 -54 -377 378 0
-54 79 -96 -378 0
-25 44 77 379 0
-25 44 77 -379 0
22 32 46 380 0
46 -52 -380 381 0
-52 55 -381 382 0
55 73 -75 -382 0
-11 31 60 383 0
-11 31 60 -383 0
-13 21 -23 -73 0
5 93 94 -99 0
35 77 384 385 0
35 77 384 -385 0
35 77 -384 385 0
35 77 -384 -385 0
-17 28 386 387 0
-17 28 386 -387 0
-17 28 -386 387 0
-17 28 -386 -387 0
-15 -20 -24 388 0
-24 37 -388 389 0
37 42 -389 390 0
42 -55 -390 391 0
-55 59 -391 392 0
59 -81 85 -392 0
2 -9 -77 100 0
20 -30 -41 -78 0
19 21 39 393 0
39 75 -393 394 0
75 -78 85 -394 0
5 -36 395 396 0
5 -36 395 -396 0
5 -36 -395 396 0
5 -36 -395 -396 0
44 47 -74 80 0
-30 33 -43 94 0
17 18 49 397 0
17 18 49 -397 0
16 22 37 398 0
37 52 -398 399 0
52 59 -64 -399 0
-16 -76 400 401 0
-16 -76 400 -401 0
-16 -76 -400 401 0
-16 -76 -400 -401 0
8 13 22 402 0
22 -34 -402 403 0
-34 -75 -403 404 0
-75 78 -99 -404 0
-19 -21 30 405 0
30 -36 -405 406 0
-36 -40 -89 -406 0
39 44 -59 407 0
-59 -85 -407 408 0
-85 96 98 -408 0
24 -59 -88 409 0
24 -59 -88 -409 0
13 69 97 410 0
13 69 97 -410 0
-36 -46 -69 411 0
-69 76 -82 -411 0
2 5 -12 412 0
-12 18 -412 413 0
18 70 -74 -413 0
21 35 36 -71 0
-11 -15 43 414 0
43 44 -414 415 0
44 -51 -415 416 0
-51 -56 -62 -416 0
17 -30 37 417 0
37 -38 -417 418 0
-38 -75 -418 419 0
-75 84 -87 -419 0
9 -20 -52 420 0
-52 -58 -420 421 0
-58 -71 -421 422 0
-71 98 100 -422 0
37 44 -45 423 0
-45 83 -93 -423 0
-6 -26 31 424 0
31 -38 -424 425 0
-38 -53 -425 426 0
-53 -57 -426 427 0
-57 -62 -92 -427 0
29 -55 -69 428 0
-69 -73 -428 429 0
-73 -77 87 -429 0
40 47 -58 430 0
-58 -87 89 -430 0
17 -30 -57 431 0
-57 -60 73 -431 0
-22 69 -74 432 0
-74 81 82 -432 0
26 -36 56 433 0
56 58 -433 434 0
58 71 -434 435 0
71 72 -435 436 0
72 88 -436 437 0
88 92 -98 -437 0
51 64 67 438 0
67 69 -438 439 0
69 -83 -100 -439 0
-40 -63 -69 440 0
-40 -63 -69 -440 0
-9 52 53 441 0
53 -59 -441 442 0
-59 80 -99 -442 0
11 49 75 443 0
75 -88 -98 -443 0
11 -32 40 444 0
40 62 68 -444 0
-4 -23 36 445 0
36 -77 -84 -445 0
68 -81 446 447 0
68 -81 446 -447 0
68 -81 -446 447 0
68 -81 -446 -447 0
-6 -9 -30 448 0
-30 -42 -448 449 0
-42 66 -449 450 0
66 67 -78 -450 0
8 40 -45 451 0
-45 52 -451 452 0
52 79 -452 453 0
79 -80 -91 -453 0
-17 20 -29 454 0
-29 -32 -454 455 0
-32 -68 -455 456 0
-68 -73 -456 457 0
-73 79 80 -457 0
11 -26 30 88 0
-77 82 458 459 0
-77 82 458 -459 0
-77 82 -458 459 0
-77 82 -458 -459 0
-1 11 64 460 0
64 -86 -460 461 0
-86 95 -461 462 0
95 -96 -99 -462 0
10 34 -35 463 0
-35 52 -463 464 0
52 53 -464 465 0
53 64 -465 466 0
64 72 -466 467 0
72 -80 -87 -467 0
-4 -48 52 468 0
52 -60 -468 469 0
-60 63 -469 470 0
63 -64 98 -470 0
-5 -9 -21 471 0
-21 -64 -471 472 0
-64 80 98 -472 0
45 -58 75 99 0
10 -41 -50 82 0
-54 -56 62 473 0
-54 -56 62 -473 0
18 19 -28 474 0
-28 -51 -474 475 0
-51 -57 92 -475 0
12 29 39 476 0
39 40 -476 477 0
40 -43 -477 478 0
-43 -53 -478 479 0
-53 68 -79 -479 0
-21 24 -30 480 0
-30 33 88 -480 0
-26 42 82 481 0
-26 42 82 -481 0
32 -39 48 482 0
48 -55 -482 483 0
-55 79 88 -483 0
8 -12 -34 484 0
-34 37 -484 485 0
37 43 -485 486 0
43 -50 -486 487 0
-50 -53 -487 488 0
-53 74 -488 489 0
74 -82 -99 -489 0
-1 14 -19 490 0
-19 -35 -490 491 0
-35 38 -491 492 0
38 -41 -71 -492 0
-7 -16 27 493 0
27 -28 -493 494 0
-28 -46 -494 495 0
-46 -86 89 -495 0
34 73 85 496 0
34 73 85 -496 0
38 65 -93 95 0
-2 -28 83 497 0
-2 -28 83 -497 0
-21 36 -73 498 0
-21 36 -73 -498 0
-1 -43 499 500 0
-1 -43 499 -500 0
-1 -43 -499 500 0
-1 -43 -499 -500 0
-11 -20 40 501 0
40 -54 -501 502 0
-54 -66 95 -502 0
-34 -48 54 503 0
54 61 -503 504 0
61 88 -92 -504 0
20 -88 96 505 0
20 -88 96 -505 0
-82 95 506 507 0
-82 95 506 -507 0
-82 95 -506 507 0
-82 95 -506 -507 0
5 -33 49 508 0
49 64 -508 509 0
64 -70 -509 510 0
-70 -80 87 -510 0
12 -13 -35 511 0
-35 59 95 -511 0
-25 -36 -41 512 0
-25 -36 -41 -512 0
-19 -74 513 514 0
-19 -74 513 -514 0
-19 -74 -513 514 0
-19 -74 -513 -514 0
15 -28 -43 515 0
15 -28 -43 -515 0
-17 20 -30 516 0
-30 45 63 -516 0
-27 -39 -45 517 0
-45 68 -517 518 0
68 73 -518 519 0
73 89 -519 520 0
89 91 -99 -520 0
30 70 75 90 0
-8 22 -24 -44 0
30 -31 43 88 0
12 14 -36 521 0
-36 39 -521 522 0
39 41 -62 -522 0
19 -24 52 523 0
52 63 -523 524 0
63 -65 -524 525 0
-65 -69 96 -525 0
-36 40 -57 70 0
14 -24 -62 -97 0
-13 -22 28 526 0
28 -82 -94 -526 0
22 24 77 527 0
22 24 77 -527 0
32 45 -65 528 0
-65 -74 -528 529 0
-74 -81 -529 530 0
-81 85 -98 -530 0
-7 -36 -47 531 0
-47 -64 -531 532 0
-64 67 -82 -532 0
-25 -57 533 534 0
-25 -57 533 -534 0
-25 -57 -533 534 0
-25 -57 -533 -534 0
-5 16 -58 535 0
-58 78 -535 536 0
78 -83 86 -536 0
-4 9 -22 537 0
-22 40 -537 538 0
40 -50 -538 539 0
-50 54 -539 540 0
54 57 -540 541 0
57 -59 -541 542 0
-59 -68 -94 -542 0
43 48 55 543 0
43 48 55 -543 0
49 87 544 545 0
49 87 544 -545 0
49 87 -544 545 0
49 87 -544 -545 0
-15 -52 62 546 0
62 80 -546 547 0
80 87 88 -547 0
31 39 42 548 0
42 49 -548 549 0
49 -82 -549 550 0
-82 85 -98 -550 0
13 -19 -36 551 0
-36 -38 -77 -551 0
22 -39 -44 552 0
-44 47 -552 553 0
47 61 -553 554 0
61 -72 94 -554 0
-12 30 33 555 0
33 39 -55 -555 0
-17 -46 -72 87 0
-2 37 -39 556 0
-39 72 83 -556 0
25 46 47 88 0
27 42 54 557 0
54 76 85 -557 0
41 -44 86 558 0
41 -44 86 -558 0
9 -26 -70 -74 0
-5 -9 -21 78 0
2 -3 13 559 0
13 -17 -559 560 0
-17 -20 -560 561 0
-20 24 -561 562 0
24 -60 82 -562 0
23 47 50 563 0
50 53 -563 564 0
53 -56 -100 -564 0
62 -73 -84 565 0
62 -73 -84 -565 0
-11 13 17 566 0
17 63 -566 567 0
63 81 -86 -567 0
18 22 34 568 0
34 -51 -568 569 0
-51 -90 -569 570 0
-90 95 99 -570 0
-35 -54 71 -96 0
-15 64 74 -83 0
60 64 -67 571 0
60 64 -67 -571 0
1 -15 -31 99 0
-11 64 -79 572 0
-79 90 -572 573 0
90 96 99 -573 0
-38 -43 -50 574 0
-50 -69 -574 575 0
-69 -93 -98 -575 0
-13 75 80 576 0
80 -83 -96 -576 0
2 64 -66 577 0
-66 -69 -90 -577 0
21 45 -55 578 0
21 45 -55 -578 0
-11 49 57 579 0
-11 49 57 -579 0
9 95 96 580 0
9 95 96 -580 0
63 -72 93 581 0
63 -72 93 -581 0
-7 54 -66 582 0
-66 70 -582 583 0
70 72 -583 584 0
72 -75 83 -584 0
-29 64 70 585 0
-29 64 70 -585 0
-4 31 -55 586 0
-4 31 -55 -586 0
-33 -43 54 587 0
54 55 -587 588 0
55 -96 -100 -588 0
-7 14 19 589 0
19 -24 -589 590 0
-24 34 -590 591 0
34 -55 68 -591 0
8 51 85 -90 0
-4 24 71 592 0
71 -73 -592 593 0
-73 -78 -593 594 0
-78 82 -594 595 0
82 88 99 -595 0
25 42 -60 596 0
-60 -73 -596 597 0
-73 77 -597 598 0
77 89 -598 599 0
89 -92 98 -599 0
-10 -30 -33 -49 0
-27 -36 -56 600 0
-27 -36 -56 -600 0
15 26 -27 601 0
-27 -37 -601 602 0
-37 -40 -602 603 0
-40 43 -603 604 0
43 -51 -604 605 0
-51 -53 -97 -605 0
-10 25 47 606 0
47 -70 -74 -606 0
8 -18 -26 607 0
-26 -31 -607 608 0
-31 -63 76 -608 0
-1 -54 -56 80 0
-9 13 -65 609 0
-65 -68 -93 -609 0
5 10 69 610 0
5 10 69 -610 0
-17 -57 82 611 0
-17 -57 82 -611 0
29 63 -77 612 0
-77 -92 97 -612 0
9 10 -22 613 0
-22 -52 -613 614 0
-52 -64 81 -614 0
6 9 11 615 0
11 43 -615 616 0
43 81 -87 -616 0
15 18 19 617 0
19 -51 -617 618 0
-51 53 -618 619 0
53 -73 -619 620 0
-73 77 -92 -620 0
5 -75 95 621 0
5 -75 95 -621 0
3 -49 69 -83 0
-8 11 -60 92 0
24 -76 622 623 0
24 -76 622 -623 0
24 -76 -622 623 0
24 -76 -622 -623 0
2 4 39 624 0
39 -48 -624 625 0
-48 51 -625 626 0
51 71 72 -626 0
3 -45 81 100 0
27 -36 -48 627 0
-48 -76 -627 628 0
-76 -89 -99 -628 0
59 70 629 630 0
59 70 629 -630 0
59 70 -629 630 0
59 70 -629 -630 0
-9 18 28 631 0
28 -58 -631 632 0
-58 64 -100 -632 0
54 73 74 633 0
54 73 74 -633 0
-30 -50 61 634 0
61 -66 -634 635 0
-66 -85 -635 636 0
-85 87 -636 637 0
87 92 -98 -637 0
32 95 -97 638 0
32 95 -97 -638 0
-2 -24 -34 639 0
-34 77 -639 640 0
77 79 -640 641 0
79 -94 96 -641 0
-20 -35 642 643 0
-20 -35 642 -643 0
-20 -35 -642 643 0
-20 -35 -642 -643 0
14 53 -97 644 0
14 53 -97 -644 0
-79 -92 645 646 0
-79 -92 645 -646 0
-79 -92 -645 646 0
-79 -92 -645 -646 0
-11 -13 -36 647 0
-36 38 -39 -647 0
17 55 -56 648 0
-56 -70 80 -648 0
29 56 65 649 0
65 -77 -81 -649 0
50 -53 -98 650 0
50 -53 -98 -650 0
40 51 62 651 0
62 65 94 -651 0
19 -33 37 652 0
37 -48 -53 -652 0
2 -9 -18 653 0
-18 -35 -40 -653 0
2 58 59 654 0
59 -75 -654 655 0
-75 79 81 -655 0
4 5 -20 656 0
-20 -23 -656 657 0
-23 50 87 -657 0
7 -22 -31 658 0
-31 -68 -93 -658 0
-3 15 -16 659 0
-16 82 85 -659 0
-7 9 10 660 0
10 -12 -660 661 0
-12 14 -661 662 0
14 15 -662 663 0
15 -17 -663 664 0
-17 -22 82 -664 0
-2 68 -74 -86 0
-60 81 665 666 0
-60 81 665 -666 0
-60 81 -665 666 0
-60 81 -665 -666 0
-11 -20 32 667 0
32 43 -61 -667 0
-45 53 54 668 0
54 73 88 -668 0
6 -24 59 -95 0
-38 43 60 -88 0
-8 -16 44 669 0
44 81 98 -669 0
-35 41 63 670 0
63 77 -92 -670 0
92 -96 671 672 0
92 -96 671 -672 0
92 -96 -671 672 0
92 -96 -671 -672 0
-7 18 -57 -64 0
-30 -35 82 96 0
-13 -16 26 673 0
26 52 84 -673 0
1 65 72 674 0
72 81 -674 675 0
81 83 -675 676 0
83 88 99 -676 0
-19 -28 39 677 0
39 40 -677 678 0
40 47 -678 679 0
47 -57 -679 680 0
-57 -84 92 -680 0
-11 30 -35 681 0
-35 46 -681 682 0
46 -63 -682 683 0
-63 68 -88 -683 0
-5 46 50 -79 0
-19 -32 51 684 0
51 -63 88 -684 0
-34 53 86 685 0
-34 53 86 -685 0
31 41 55 686 0
55 -61 -686 687 0
-61 64 -687 688 0
64 82 -84 -688 0
-20 40 69 689 0
-20 40 69 -689 0
2 3 -8 690 0
-8 -22 -690 691 0
-22 30 -691 692 0
30 -32 -82 -692 0
44 86 693 694 0
44 86 693 -694 0
44 86 -693 694 0
44 86 -693 -694 0
-26 37 695 696 0
-26 37 695 -696 0
-26 37 -695 696 0
-26 37 -695 -696 0
9 -24 -29 697 0
-29 -33 -697 698 0
-33 46 -698 699 0
46 51 -699 700 0
51 -64 -700 701 0
-64 68 -701 702 0
68 -90 94 -702 0
11 -18 -86 703 0
11 -18 -86 -703 0
29 -39 -50 -87 0
28 30 48 704 0
48 84 -704 705 0
84 -87 94 -705 0
14 -45 706 707 0
14 -45 706 -707 0
14 -45 -706 707 0
14 -45 -706 -707 0
3 53 56 708 0
56 -83 89 -708 0
-39 42 -52 709 0
-39 42 -52 -709 0
26 27 58 710 0
26 27 58 -710 0
25 31 46 711 0
46 61 -711 712 0
61 68 -73 -712 0
-8 -25 -85 713 0
-8 -25 -85 -713 0
17 22 31 714 0
31 -43 -714 715 0
-43 -84 87 -715 0
5 7 -28 716 0
-28 -30 -716 717 0
-30 39 -717 718 0
39 -45 -718 719 0
-45 -49 -98 -719 0
48 53 -68 -94 0
6 33 -68 -97 0
22 78 720 721 0
22 78 720 -721 0
22 78 -720 721 0
22 78 -720 -721 0
-45 -55 -78 722 0
-78 85 -91 -722 0
11 14 -21 723 0
-21 27 -723 724 0
27 79 -83 -724 0
30 44 45 -80 0
-20 -24 52 725 0
52 53 -725 726 0
53 -60 -726 727 0
-60 -65 -71 -727 0
7 9 26 728 0
26 -39 -728 729 0
-39 46 -729 730 0
46 -47 -730 731 0
-47 -84 -731 732 0
-84 93 -96 -732 0
-2 18 -29 733 0
-29 -61 -733 734 0
-61 -67 -80 -734 0
-1 46 53 735 0
53 -54 92 -735 0
-15 -35 40 736 0
40 -47 -736 737 0
-47 -62 -737 738 0
-62 -66 -71 -738 0
38 -64 -78 739 0
-78 -82 -739 740 0
-82 -86 96 -740 0
49 56 -67 741 0
-67 -96 98 -741 0
26 -39 -66 742 0
-66 -69 82 -742 0
1 -7 -31 743 0
-31 78 -743 744 0
78 -83 -744 745 0
-83 90 91 -745 0
-9 35 -45 746 0
-45 65 -746 747 0
65 67 -747 748 0
67 80 -748 749 0
80 81 97 -749 0
60 73 76 750 0
76 78 -92 -750 0
-8 -49 -72 -78 0
-7 -18 61 751 0
61 62 -751 752 0
62 -68 89 -752 0
20 58 84 -97 0
20 -41 49 753 0
49 71 77 -753 0
-13 -32 45 754 0
45 -86 -93 -754 0
77 -90 755 756 0
77 -90 755 -756 0
77 -90 -755 756 0
77 -90 -755 -756 0
-15 -18 -39 757 0
-39 -51 -757 758 0
-51 75 -758 759 0
75 76 -87 -759 0
17 49 -54 760 0
-54 61 -760 761 0
61 88 -761 762 0
88 -89 -100 -762 0
-26 29 -38 763 0
-38 -41 -763 764 0
-41 -77 -764 765 0
-77 -82 -765 766 0
-82 88 89 -766 0
20 -35 39 97 0
4 -5 -8 767 0
-8 -86 91 -767 0
-10 20 73 -95 0
7 19 43 768 0
43 -44 -768 769 0
-44 61 -769 770 0
61 62 -770 771 0
62 73 -771 772 0
73 81 -772 773 0
81 -89 -96 -773 0
7 -13 -57 774 0
-57 61 -774 775 0
61 -69 -775 776 0
-69 72 -73 -776 0
-14 -18 -30 777 0
-30 -73 89 -777 0
8 92 778 779 0
8 92 778 -779 0
8 92 -778 779 0
8 92 -778 -779 0
54 -67 84 780 0
54 -67 84 -780 0
19 -50 -59 91 0
1 -63 -65 71 0
27 28 -37 781 0
-37 -60 -66 -781 0
21 38 48 782 0
48 49 -782 783 0
49 -52 -783 784 0
-52 -62 -784 785 0
-62 77 -88 -785 0
-30 33 -39 786 0
-39 42 97 -786 0
-35 51 91 787 0
-35 51 91 -787 0
41 -48 57 788 0
57 -64 -788 789 0
-64 88 97 -789 0
-8 26 790 791 0
-8 26 790 -791 0
-8 26 -790 791 0
-8 26 -790 -791 0
17 -21 -43 792 0
-43 46 -792 793 0
46 52 -793 794 0
52 -59 -794 795 0
-59 -62 -795 796 0
-62 83 -91 -796 0
-10 23 -28 797 0
-28 -44 -797 798 0
-44 47 -798 799 0
47 -50 -80 -799 0
-16 -25 36 800 0
36 -37 -800 801 0
-37 -55 -801 802 0
-55 -95 98 -802 0
-2 4 43 803 0
43 82 94 -803 0
47 74 804 805 0
47 74 804 -805 0
47 74 -804 805 0
47 74 -804 -805 0
-11 -37 92 806 0
-11 -37 92 -806 0
-30 45 -82 807 0
-30 45 -82 -807 0
4 -10 -52 808 0
4 -10 -52 -808 0
-1 -20 -29 809 0
-29 49 -809 810 0
49 -63 -75 -810 0
5 -43 -57 811 0
-57 63 -811 812 0
63 70 97 -812 0
4 29 -97 813 0
4 29 -97 -813 0
4 14 -42 814 0
-42 58 -814 815 0
58 73 -815 816 0
73 -79 -816 817 0
-79 -89 96 -817 0
21 -22 -44 68 0
-34 -45 -50 818 0
-34 -45 -50 -818 0
-28 -83 819 820 0
-28 -83 819 -820 0
-28 -83 -819 820 0
-28 -83 -819 -820 0
24 -37 -52 821 0
24 -37 -52 -821 0
-8 -26 29 822 0
29 -39 -822 823 0
-39 54 72 -823 0
-36 -48 -54 824 0
-54 77 -824 825 0
77 82 -825 826 0
82 98 100 -826 0
39 79 84 99 0
-17 31 -33 -53 0
39 -40 52 97 0
5 21 23 827 0
23 -45 -827 828 0
-45 48 -828 829 0
48 50 -71 -829 0
28 -33 61 830 0
61 72 -830 831 0
72 -74 -78 -831 0
-6 -45 49 832 0
49 -66 79 -832 0
-3 23 -33 -71 0
-22 -31 37 -91 0
-7 31 33 86 0
41 54 -74 833 0
-74 -83 -833 834 0
-83 -90 94 -834 0
-16 -45 -56 835 0
-56 -73 -835 836 0
-73 76 -91 -836 0
-34 -66 837 838 0
-34 -66 837 -838 0
-34 -66 -837 838 0
-34 -66 -837 -838 0
-3 -14 25 839 0
25 -67 -839 840 0
-67 87 -840 841 0
87 -92 95 -841 0
-13 18 -31 842 0
-31 49 -842 843 0
49 -59 -843 844 0
-59 63 -844 845 0
63 66 -845 846 0
66 -68 -77 -846 0
52 57 64 847 0
52 57 64 -847 0
58 96 848 849 0
58 96 848 -849 0
58 96 -848 849 0
58 96 -848 -849 0
-7 -24 -61 850 0
-61 71 -850 851 0
71 89 -851 852 0
89 96 97 -852 0
40 48 51 853 0
51 58 -853 854 0
58 -91 94 -854 0
3 22 -28 855 0
-28 -45 -855 856 0
-45 -47 -86 -856 0
31 -48 -53 857 0
-53 56 -857 858 0
56 70 -81 -858 0
-21 39 42 859 0
42 48 -64 -859 0
-26 -55 -81 96 0
-11 46 -48 860 0
-48 81 92 -860 0
34 55 56 97 0
36 51 63 861 0
63 85 94 -861 0
50 -53 95 862 0
50 -53 95 -862 0
18 -35 -79 -83 0
-14 -18 -30 87 0
-9 11 -12 863 0
-12 22 -863 864 0
22 -26 -864 865 0
-26 -29 -865 866 0
-29 33 -866 867 0
33 -69 91 -867 0
32 56 59 868 0
59 62 -65 -868 0
71 -82 -93 869 0
71 -82 -93 -869 0
4 8 -20 870 0
-20 22 -870 871 0
22 26 -871 872 0
26 72 -872 873 0
72 90 -95 -873 0
-5 27 31 874 0
31 43 -874 875 0
43 -60 -99 -875 0
-44 -63 80 876 0
-44 -63 80 -876 0
-24 73 83 -92 0
8 69 73 -76 0
5 8 10 877 0
10 -24 -40 -877 0
-2 -7 -20 878 0
-20 73 -878 879 0
73 -88 99 -879 0
-5 -47 -52 880 0
-52 -59 -78 -880 0
-22 84 89 -92 0
11 73 -75 881 0
-75 -78 -99 -881 0
30 54 -64 882 0
30 54 -64 -882 0
4 5 -20 883 0
-20 58 66 -883 0
2 18 884 885 0
2 18 884 -885 0
2 18 -884 885 0
2 18 -884 -885 0
72 -81 886 887 0
72 -81 886 -887 0
72 -81 -886 887 0
72 -81 -886 -887 0
-16 63 -75 888 0
-75 79 -888 889 0
79 81 -889 890 0
81 -84 92 -890 0
-38 73 79 891 0
-38 73 79 -891 0
-5 -9 -13 892 0
-13 40 -64 -892 0
-42 -52 63 64 0
-16 23 28 893 0
28 -33 -893 894 0
-33 43 -894 895 0
43 -64 77 -895 0
8 17 60 896 0
60 94 -99 -896 0
-1 7 -13 897 0
-13 33 -897 898 0
33 80 -898 899 0
80 -82 -899 900 0
-82 -87 -900 901 0
-87 91 97 -901 0
34 51 -69 902 0
-69 -82 -902 903 0
-82 86 98 -903 0
-19 -39 -42 -58 0
-6 -36 -45 -65 0
24 35 -36 904 0
-36 -46 -904 905 0
-46 -49 -905 906 0
-49 52 -906 907 0
52 -60 -62 -907 0
-19 34 56 908 0
56 -79 -83 -908 0
17 -27 -35 909 0
-35 -40 -909 910 0
-40 -72 85 -910 0
-10 -63 -65 89 0
-2 15 911 912 0
-2 15 911 -912 0
-2 15 -911 912 0
-2 15 -911 -912 0
-18 22 -74 -77 0
14 19 78 913 0
14 19 78 -913 0
-26 -66 91 914 0
-26 -66 91 -914 0
-1 6 72 915 0
-1 6 72 -915 0
38 72 -86 916 0
38 72 -86 -916 0
18 19 -31 917 0
-31 -61 -917 918 0
-61 -73 90 -918 0
-1 15 18 919 0
18 20 -919 920 0
20 52 -920 921 0
52 90 -96 -921 0
4 24 27 922 0
27 28 -922 923 0
28 -60 -923 924 0
-60 62 -924 925 0
62 -82 86 -925 0
14 -84 926 927 0
14 -84 926 -927 0
14 -84 -926 927 0
14 -84 -926 -927 0
1 12 -58 928 0
-58 78 -92 -928 0
-17 20 -69 929 0
-17 20 -69 -929 0
33 -85 930 931 0
33 -85 930 -931 0
33 -85 -930 931 0
33 -85 -930 -931 0
9 11 13 932 0
13 48 -932 933 0
48 -57 -933 934 0
-57 60 -934 935 0
60 80 81 -935 0
7 12 -54 90 0
36 -45 -57 936 0
-57 -85 -98 -936 0
-9 68 79 937 0
-9 68 79 -937 0
-18 27 37 938 0
37 -67 73 -938 0
1 -7 63 939 0
63 82 83 -939 0
4 -6 -39 940 0
-39 -59 -940 941 0
-59 70 -941 942 0
70 -75 -942 943 0
-75 -94 96 -943 0
-3 5 41 944 0
-3 5 41 -944 0
-11 -33 -43 945 0
-43 86 88 -945 0
-6 -29 -44 946 0
-6 -29 -44 -946 0
-1 23 62 947 0
-1 23 62 -947 0
-20 -22 -45 948 0
-45 47 -48 -948 0
26 64 -65 949 0
-65 -79 89 -949 0
-7 38 65 950 0
65 74 -950 951 0
74 -86 -90 -951 0
3 59 -62 952 0
3 59 -62 -952 0
49 60 71 74 0
28 -42 46 953 0
46 -57 -62 -953 0
11 -18 -27 954 0
-27 -44 -49 -954 0
11 67 68 955 0
68 -84 -955 956 0
-84 88 90 -956 0
-2 13 14 957 0
14 -29 -957 958 0
-29 -32 -958 959 0
-32 59 96 -959 0
16 -31 -40 -77 0
-12 24 -25 960 0
-25 91 94 -960 0
-16 18 19 961 0
19 -21 -961 962 0
-21 23 -962 963 0
23 24 -963 964 0
24 -26 -964 965 0
-26 -31 91 -965 0
-11 77 -83 -95 0
-69 90 966 967 0
-69 90 966 -967 0
-69 90 -966 967 0
-69 90 -966 -967 0
-20 -29 41 968 0
41 52 -70 -968 0
-4 -54 62 969 0
62 63 -969 970 0
63 82 97 -970 0
15 -33 68 971 0
15 -33 68 -971 0
7 -47 52 972 0
52 69 -97 -972 0
-1 -17 -25 973 0
-25 53 90 -973 0
1 -5 -44 974 0
-44 50 -974 975 0
50 72 86 -975 0
5 -16 27 976 0
27 -66 -73 -976 0
-39 -44 91 977 0
-39 -44 91 -977 0
8 -22 -25 978 0
-25 35 -978 979 0
35 61 93 -979 0
1 10 74 980 0
74 81 -980 981 0
81 90 -981 982 0
90 92 97 -982 0
-28 -37 48 983 0
48 49 -983 984 0
49 56 -984 985 0
56 -66 -93 -985 0
-20 39 -44 986 0
-44 55 -986 987 0
55 -72 -987 988 0
-72 77 -97 -988 0
-14 55 59 -88 0
-28 -41 60 989 0
60 -72 97 -989 0
-43 62 95 990 0
-43 62 95 -990 0
40 50 64 991 0
64 -70 -991 992 0
-70 73 -992 993 0
73 91 -93 -993 0
-29 49 78 994 0
-29 49 78 -994 0
11 12 -17 995 0
-17 -31 -995 996 0
-31 39 -996 997 0
39 -41 -91 -997 0
53 95 998 999 0
53 95 998 -999 0
53 95 -998 999 0
53 95 -998 -999 0
3 -35 46 1000 0
3 -35 46 -1000 0
18 -33 -38 1001 0
-38 -42 -1001 1002 0
-42 55 -1002 1003 0
55 60 -1003 1004 0
60 -73 -1004 1005 0
-73 77 -99 -1005 0
20 -27 -95 1006 0
20 -27 -95 -1006 0
3 38 -48 1007 0
-48 -59 -96 -1007 0
37 39 57 1008 0
57 93 -96 -1008 0
23 -54 1009 1010 0
23 -54 1009 -1010 0
23 -54 -1009 1010 0
23 -54 -1009 -1010 0
12 62 65 1011 0
65 -92 98 -1011 0
-48 51 -61 1012 0
-48 51 -61 -1012 0
35 36 67 1013 0
35 36 67 -1013 0
34 40 55 1014 0
55 70 -1014 1015 0
70 77 -82 -1015 0
-17 -34 -94 1016 0
-17 -34 -94 -1016 0
-7 26 31 1017 0
31 40 -1017 1018 0
40 -52 -1018 1019 0
-52 -93 96 -1019 0
-3 14 16 1020 0
16 -37 -1020 1021 0
-37 -39 -1021 1022 0
-39 48 -1022 1023 0
48 -54 -58 -1023 0
-6 57 62 -77 0
15 42 -77 1024 0
15 42 -77 -1024 0
31 87 1025 1026 0
31 87 1025 -1026 0
31 87 -1025 1026 0
31 87 -1025 -1026 0
-54 -64 -87 1027 0
-87 94 -100 -1027 0
20 23 -30 1028 0
-30 36 -1028 1029 0
36 88 -92 -1029 0
39 53 54 -89 0
2 -5 -29 1030 0
-29 -33 -1030 1031 0
-33 61 -1031 1032 0
61 62 -1032 1033 0
62 -69 -1033 1034 0
-69 -74 -80 -1034 0
16 18 35 1035 0
35 -48 -1035 1036 0
-48 55 -1036 1037 0
55 -56 -93 -1037 0
1 -11 27 1038 0
27 -38 -1038 1039 0
-38 -70 -1039 1040 0
-70 -76 -89 -1040 0
-10 55 62 -63 0
5 -24 -44 1041 0
-44 49 -1041 1042 0
49 -56 -1042 1043 0
-56 -71 -1043 1044 0
-71 -75 -80 -1044 0
-5 7 47 1045 0
47 -73 -1045 1046 0
-73 -87 -1046 1047 0
-87 -91 -95 -1047 0
58 65 -76 1048 0
58 65 -76 -1048 0
35 -48 -75 1049 0
-75 -78 91 -1049 0
6 10 -16 1050 0
-16 -40 -1050 1051 0
-40 87 -1051 1052 0
87 -92 -1052 1053 0
-92 99 100 -1053 0
-1 -18 44 1054 0
44 -54 -1054 1055 0
-54 74 -1055 1056 0
74 76 -1056 1057 0
76 89 90 -1057 0
69 82 85 87 0
-17 -58 -81 -87 0
-6 -16 -27 1058 0
-27 70 -1058 1059 0
70 71 -1059 1060 0
71 -77 98 -1060 0
29 67 93 1061 0
29 67 93 -1061 0
-2 29 -50 1062 0
-50 58 -1062 1063 0
58 80 86 -1063 0
-22 -41 54 -95 0
86 -99 1064 1065 0
86 -99 1064 -1065 0
86 -99 -1064 1065 0
86 -99 -1064 -1065 0
-9 -24 -27 1066 0
-27 -48 -1066 1067 0
-48 -60 -1067 1068 0
-60 84 -1068 1069 0
84 85 -96 -1069 0
26 58 -63 1070 0
-63 70 -1070 1071 0
70 97 -98 -1071 0
6 -35 38 1072 0
38 -47 -1072 1073 0
-47 -50 -1073 1074 0
-50 -86 -1074 1075 0
-86 -91 -1075 1076 0
-91 97 98 -1076 0
29 -44 48 1077 0
29 -44 48 -1077 0
-4 13 -14 1078 0
-14 -17 -1078 1079 0
-17 -95 100 -1079 0
-19 29 82 1080 0
-19 29 82 -1080 0
-5 -44 1081 1082 0
-5 -44 1081 -1082 0
-5 -44 -1081 1082 0
-5 -44 -1081 -1082 0
16 28 52 1083 0
52 -53 -1083 1084 0
-53 70 -1084 1085 0
70 71 -1085 1086 0
71 82 -1086 1087 0
82 90 -98 -1087 0
16 -22 -66 1088 0
-66 70 -1088 1089 0
70 -78 -1089 1090 0
-78 81 -82 -1090 0
1 -23 -27 1091 0
-27 -39 -1091 1092 0
-39 -82 98 -1092 0
63 -76 93 1093 0
63 -76 93 -1093 0
28 -59 -68 100 0
10 -72 -74 80 0
36 37 -46 1094 0
-46 -69 -75 -1094 0
6 30 47 1095 0
47 57 -1095 1096 0
57 58 -1096 1097 0
58 -61 -1097 1098 0
-61 -71 -1098 1099 0
-71 86 -97 -1099 0
-39 42 -48 51 0
6 -44 60 100 0
50 -57 66 1100 0
66 -73 97 -1100 0
-17 35 1101 1102 0
-17 35 1101 -1102 0
-17 35 -1101 1102 0
-17 35 -1101 -1102 0
26 -30 -52 1103 0
-52 55 -1103 1104 0
55 61 -1104 1105 0
61 -68 -1105 1106 0
-68 -71 -1106 1107 0
-71 92 -100 -1107 0
-4 7 -19 1108 0
-19 32 -1108 1109 0
32 -37 -1109 1110 0
-37 -53 -1110 1111 0
-53 56 -1111 1112 0
56 -59 -89 -1112 0
3 -25 -34 1113 0
-34 45 -1113 1114 0
45 -46 -64 -1114 0
-11 13 52 91 0
1 56 83 1115 0
1 56 83 -1115 0
-20 -46 1116 1117 0
-20 -46 1116 -1117 0
-20 -46 -1116 1117 0
-20 -46 -1116 -1117 0
-39 54 -91 1118 0
-39 54 -91 -1118 0
13 -19 -61 1119 0
13 -19 -61 -1119 0
6 -10 -29 1120 0
-29 -38 -1120 1121 0
-38 58 -1121 1122 0
58 -72 -84 -1122 0
-6 14 -52 1123 0
-52 -66 -1123 1124 0
-66 72 79 -1124 0
13 38 1125 1126 0
13 38 1125 -1126 0
13 38 -1125 1126 0
13 38 -1125 -1126 0
5 -100 1127 1128 0
5 -100 1127 -1128 0
5 -100 -1127 1128 0
5 -100 -1127 -1128 0
13 23 -51 1129 0
-51 67 -1129 1130 0
67 82 -1130 1131 0
82 -88 -98 -1131 0
30 -31 -53 77 0
-43 -54 -59 1132 0
-43 -54 -59 -1132 0
-37 -92 1133 1134 0
-37 -92 1133 -1134 0
-37 -92 -1133 1134 0
-37 -92 -1133 -1134 0
33 -46 -61 1135 0
33 -46 -61 -1135 0
7 9 -17 1136 0
-17 -35 -1136 1137 0
-35 38 -1137 1138 0
38 -48 -1138 1139 0
-48 63 81 -1139 0
8 -45 -57 1140 0
-57 -63 -1140 1141 0
-63 86 91 -1141 0
48 88 93 1142 0
48 88 93 -1142 0
6 -26 40 1143 0
40 -42 -62 -1143 0
-48 -58 61 1144 0
-48 -58 61 -1144 0
-4 8 -11 1145 0
-11 -60 85 -1145 0
-38 -50 -52 -74 0
11 17 -30 1146 0
-30 -60 -1146 1147 0
-60 -68 -1147 1148 0
-68 87 -97 -1148 0
5 -18 -24 1149 0
-24 -27 -1149 1150 0
-27 39 54 -1150 0
-15 -36 -45 1151 0
-45 54 -1151 1152 0
54 74 -95 -1152 0
19 29 -34 1153 0
-34 -42 -1153 1154 0
-42 51 -1154 1155 0
51 57 -1155 1156 0
57 -68 -87 -1156 0
20 31 -36 63 0
18 41 42 1157 0
42 -45 -1157 1158 0
-45 -51 -1158 1159 0
-51 -66 -1159 1160 0
-66 -81 -91 -1160 0
18 26 -82 90 0
56 83 1161 1162 0
56 83 1161 -1162 0
56 83 -1161 1162 0
56 83 -1161 -1162 0
-13 -44 53 1163 0
-13 -44 53 -1163 0
-13 -74 78 1164 0
-13 -74 78 -1164 0
25 -52 57 74 0
41 46 51 1165 0
51 -64 -1165 1166 0
-64 -70 -1166 1167 0
-70 77 -96 -1167 0
34 -38 -55 82 0
30 -57 64 1168 0
64 65 -1168 1169 0
65 67 -1169 1170 0
67 89 90 -1170 0
39 -42 44 1171 0
44 -76 -1171 1172 0
-76 82 -1172 1173 0
82 83 90 -1173 0
-2 13 34 1174 0
34 47 -1174 1175 0
47 58 -1175 1176 0
58 -84 -1176 1177 0
-84 -89 97 -1177 0
-5 -36 42 1178 0
42 -56 -1178 1179 0
-56 -73 -1179 1180 0
-73 80 94 -1180 0
4 5 -7 1181 0
-7 -21 -1181 1182 0
-21 -36 -1182 1183 0
-36 -42 -70 -1183 0
1 99 1184 1185 0
1 99 1184 -1185 0
1 99 -1184 1185 0
1 99 -1184 -1185 0
12 14 74 1186 0
74 -87 -1186 1187 0
-87 96 98 -1187 0
-4 -26 -44 1188 0
-44 47 -1188 1189 0
47 48 -1189 1190 0
48 58 -1190 1191 0
58 61 -1191 1192 0
61 86 -94 -1192 0
-25 31 -33 84 0
-61 -71 -74 -79 0
-9 18 19 1193 0
19 -56 60 -1193 0
-15 -30 53 1194 0
53 59 -89 -1194 0
-42 58 1195 1196 0
-42 58 1195 -1196 0
-42 58 -1195 1196 0
-42 58 -1195 -1196 0
43 -61 75 1197 0
75 -86 -1197 1198 0
-86 90 -93 -1198 0
9 -44 -89 1199 0
9 -44 -89 -1199 0
55 71 1200 1201 0
55 71 1200 -1201 0
55 71 -1200 1201 0
55 71 -1200 -1201 0
35 40 97 -100 0
-9 23 -33 1202 0
-33 52 -96 -1202 0
-19 26 -49 1203 0
-49 55 -1203 1204 0
55 -82 -87 -1204 0
12 -17 -52 1205 0
-52 -57 -1205 1206 0
-57 63 -1206 1207 0
63 -65 -1207 1208 0
-65 79 -100 -1208 0
2 -17 -23 -83 0
-22 53 69 1209 0
-22 53 69 -1209 0
-4 -6 45 -62 0
20 22 -48 1210 0
-48 -52 -1210 1211 0
-52 -79 99 -1211 0
-9 -22 -25 1212 0
-25 55 -1212 1213 0
55 57 -1213 1214 0
57 -59 -1214 1215 0
-59 -65 -1215 1216 0
-65 71 -79 -1216 0
7 -23 26 1217 0
26 30 -1217 1218 0
30 -53 -68 -1218 0
-24 39 -47 1219 0
-47 64 96 -1219 0
-2 -42 57 1220 0
57 60 -1220 1221 0
60 -66 -82 -1221 0
-17 -28 -41 1222 0
-41 45 -1222 1223 0
45 67 95 -1223 0
32 -34 -47 1224 0
-47 -88 93 -1224 0
17 -27 29 1225 0
29 -30 -1225 1226 0
-30 -59 -98 -1226 0
-3 15 -29 -49 0
-52 -60 -77 1227 0
-52 -60 -77 -1227 0
65 -78 -82 1228 0
65 -78 -82 -1228 0
54 -71 -73 88 0
-17 -27 34 1229 0
34 73 -1229 1230 0
73 74 -1230 1231 0
74 84 -1231 1232 0
84 86 97 -1232 0
-9 29 30 1233 0
30 32 -1233 1234 0
32 -55 -1234 1235 0
-55 74 81 -1235 0
27 61 67 -81 0
5 -14 34 1236 0
34 -38 -1236 1237 0
-38 -51 -1237 1238 0
-51 -56 -1238 1239 0
-56 -61 -78 -1239 0
1 -35 67 88 0
-24 -40 48 1240 0
48 -64 72 -1240 0
-2 7 -10 1241 0
-10 -22 -1241 1242 0
-22 40 -1242 1243 0
40 -46 -1243 1244 0
-46 79 -1244 1245 0
79 81 -83 -1245 0
-8 -23 28 87 0
-30 -64 -78 1246 0
-30 -64 -78 -1246 0
-51 -68 1247 1248 0
-51 -68 1247 -1248 0
-51 -68 -1247 1248 0
-51 -68 -1247 -1248 0
2 5 52 1249 0
52 71 -1249 1250 0
71 -86 95 -1250 0
42 -52 -98 1251 0
42 -52 -98 -1251 0
21 -33 81 1252 0
81 -82 90 -1252 0
-2 8 -23 1253 0
-23 -32 -1253 1254 0
-32 47 -1254 1255 0
47 54 -1255 1256 0
54 62 -1256 1257 0
62 -75 100 -1257 0
-31 -37 59 1258 0
59 -62 -1258 1259 0
-62 -66 -1259 1260 0
-66 89 90 -1260 0
41 -42 -48 1261 0
-48 -71 -1261 1262 0
-71 81 -92 -1262 0
57 59 -82 1263 0
-82 -88 97 -1263 0
3 -61 85 1264 0
3 -61 85 -1264 0
-17 -34 -58 -88 0
-14 57 -58 1265 0
-58 -61 -1265 1266 0
-61 69 91 -1266 0
-8 -21 -24 1267 0
-24 -52 -1267 1268 0
-52 60 -1268 1269 0
60 -71 -75 -1269 0
6 -30 35 1270 0
35 -38 -1270 1271 0
-38 -77 -84 -1271 0
-31 -34 45 1272 0
45 76 -1272 1273 0
76 77 89 -1273 0
-32 66 -78 -95 0
1 -12 -17 1274 0
-17 -26 -1274 1275 0
-26 -29 -1275 1276 0
-29 48 -1276 1277 0
48 -83 96 -1277 0
-13 20 40 -49 0
-26 -76 -82 1278 0
-26 -76 -82 -1278 0
4 -13 -30 1279 0
-30 49 -1279 1280 0
49 -52 -1280 1281 0
-52 -74 -1281 1282 0
-74 88 95 -1282 0
17 47 80 1283 0
80 -86 -90 -1283 0
18 24 -55 72 0
21 65 75 -79 0
-13 21 88 1284 0
88 89 -95 -1284 0
4 80 -83 100 0
-4 -13 -18 1285 0
-18 29 -1285 1286 0
29 41 -1286 1287 0
41 50 -1287 1288 0
50 -66 -78 -1288 0
1 -26 -34 1289 0
-34 -39 -1289 1290 0
-39 76 -1290 1291 0
76 -79 -89 -1291 0
4 -39 57 1292 0
57 -60 -1292 1293 0
-60 64 79 -1293 0
1 36 54 1294 0
54 55 57 -1294 0
49 50 1295 1296 0
49 50 1295 -1296 0
49 50 -1295 1296 0
49 50 -1295 -1296 0
-14 38 -92 1297 0
-14 38 -92 -1297 0
42 53 -60 1298 0
-60 79 -1298 1299 0
79 90 -1299 1300 0
90 -93 97 -1300 0
-4 12 -14 -65 0
-5 -17 -47 1301 0
-47 75 -1301 1302 0
75 -77 80 -1302 0
4 -49 53 58 0
35 -38 -42 1303 0
-42 -51 -1303 1304 0
-51 56 -1304 1305 0
56 -84 -1305 1306 0
-84 88 -95 -1306 0
-29 -32 37 1307 0
37 -60 -1307 1308 0
-60 69 -98 -1308 0
-35 -43 -75 -96 0
43 52 61 1309 0
43 52 61 -1309 0
9 23 -39 1310 0
-39 -50 -1310 1311 0
-50 64 -1311 1312 0
64 72 90 -1312 0
6 20 23 1313 0
23 53 -1313 1314 0
53 -72 -97 -1314 0
15 -20 23 1315 0
23 39 -1315 1316 0
39 -86 -1316 1317 0
-86 96 99 -1317 0
-27 -34 49 1318 0
49 54 -1318 1319 0
54 76 -1319 1320 0
76 86 -92 -1320 0
28 -40 -68 84 0
17 35 -50 1321 0
-50 62 -1321 1322 0
62 98 -99 -1322 0
3 5 -15 1323 0
-15 84 -100 -1323 0
-16 42 67 1324 0
-16 42 67 -1324 0
-30 38 -41 1325 0
-41 -47 -1325 1326 0
-47 81 -1326 1327 0
81 -88 -1327 1328 0
-88 -96 -100 -1328 0
8 -9 30 1329 0
30 32 -1329 1330 0
32 34 -1330 1331 0
34 51 -89 -1331 0
4 -20 30 1332 0
30 32 -1332 1333 0
32 58 88 -1333 0
-8 -43 -62 1334 0
-8 -43 -62 -1334 0
-18 87 88 -94 0
19 -49 1335 1336 0
19 -49 1335 -1336 0
19 -49 -1335 1336 0
19 -49 -1335 -1336 0
5 -20 32 1337 0
32 -40 46 -1337 0
11 -34 39 1338 0
39 -61 -73 -1338 0
-3 -7 -14 1339 0
-14 -35 -1339 1340 0
-35 -75 -92 -1340 0
8 12 -22 1341 0
-22 -92 -1341 1342 0
-92 94 -95 -1342 0
3 -67 -79 1343 0
3 -67 -79 -1343 0
-5 38 44 1344 0
44 -53 -1344 1345 0
-53 83 -1345 1346 0
83 84 -91 -1346 0
-22 53 57 92 0
-13 -26 29 1347 0
29 57 -1347 1348 0
57 -61 -1348 1349 0
-61 -69 -76 -1349 0
-57 -82 1350 1351 0
-57 -82 1350 -1351 0
-57 -82 -1350 1351 0
-57 -82 -1350 -1351 0
-13 28 42 1352 0
42 -46 -1352 1353 0
-46 -54 -1353 1354 0
-54 74 79 -1354 0
-26 -28 -52 1355 0
-52 64 -1355 1356 0
64 -69 -1356 1357 0
-69 -92 -98 -1357 0
21 37 -75 1358 0
-75 -77 -1358 1359 0
-77 93 -99 -1359 0
-69 -72 90 1360 0
-69 -72 90 -1360 0
5 59 -71 1361 0
-71 -85 -1361 1362 0
-85 -94 -97 -1362 0
14 15 27 1363 0
27 -40 -71 -1363 0
-7 44 53 -79 0
-19 -36 82 1364 0
-19 -36 82 -1364 0
38 -61 -80 1365 0
38 -61 -80 -1365 0
-3 25 -27 1366 0
-27 -49 -1366 1367 0
-49 60 -1367 1368 0
60 -79 89 -1368 0
-15 39 43 1369 0
43 44 -1369 1370 0
44 48 77 -1370 0
-12 65 75 1371 0
75 79 80 -1371 0
53 -64 -88 -92 0
12 18 42 1372 0
42 -57 -75 -1372 0
28 91 1373 1374 0
28 91 1373 -1374 0
28 91 -1373 1374 0
28 91 -1373 -1374 0
-35 -38 46 1375 0
-35 -38 46 -1375 0
-12 19 44 1376 0
44 52 -1376 1377 0
52 61 -1377 1378 0
61 -62 -1378 1379 0
-62 86 -92 -1379 0
-25 -63 -96 1380 0
-25 -63 -96 -1380 0
-27 -35 -71 1381 0
-27 -35 -71 -1381 0
-11 29 47 1382 0
47 -49 -1382 1383 0
-49 -68 -83 -1383 0
33 86 1384 1385 0
33 86 1384 -1385 0
33 86 -1384 1385 0
33 86 -1384 -1385 0
3 9 -34 1386 0
-34 41 -59 -1386 0
-49 -58 -98 1387 0
-49 -58 -98 -1387 0
48 54 57 1388 0
57 -87 100 -1388 0
-44 64 83 1389 0
83 84 -96 -1389 0
-14 46 -83 1390 0
-14 46 -83 -1390 0
-28 -63 -76 87 0
43 100 1391 1392 0
43 100 1391 -1392 0
43 100 -1391 1392 0
43 100 -1391 -1392 0
-54 -89 1393 1394 0
-54 -89 1393 -1394 0
-54 -89 -1393 1394 0
-54 -89 -1393 -1394 0
3 51 -69 75 0
30 33 38 1395 0
38 -67 -76 -1395 0
-8 -20 -55 -88 0
-2 -9 -48 1396 0
-48 52 -1396 1397 0
52 -69 -84 -1397 0
-3 6 -13 1398 0
-13 -41 -1398 1399 0
-41 52 -67 -1399 0
15 -25 81 1400 0
15 -25 81 -1400 0
24 -67 71 1401 0
71 -83 -87 -1401 0
-13 33 44 1402 0
44 -45 -1402 1403 0
-45 72 -1403 1404 0
72 80 -98 -1404 0
-43 87 1405 1406 0
-43 87 1405 -1406 0
-43 87 -1405 1406 0
-43 87 -1405 -1406 0
-19 28 29 1407 0
29 -50 -1407 1408 0
-50 -60 -98 -1408 0
30 -35 45 1409 0
45 -46 -1409 1410 0
-46 52 -1410 1411 0
52 65 -1411 1412 0
65 -84 -99 -1412 0
1 -5 16 1413 0
16 -53 -1413 1414 0
-53 -67 -1414 1415 0
-67 70 -1415 1416 0
70 71 -1416 1417 0
71 91 93 -1417 0
19 63 68 1418 0
68 -70 -1418 1419 0
-70 83 -84 -1419 0
-55 59 -82 -88 0
1 13 -18 1420 0
-18 22 -1420 1421 0
22 39 -1421 1422 0
39 49 -1422 1423 0
49 -56 -59 -1423 0
1 -12 21 1424 0
21 26 -1424 1425 0
26 -47 99 -1425 0
41 -57 1426 1427 0
41 -57 1426 -1427 0
41 -57 -1426 1427 0
41 -57 -1426 -1427 0
-3 -42 67 1428 0
67 -69 -97 -1428 0
